n= 1
m= 30
1000
659	4	4
434	14	7
409	16	8
294	14	7
663	4	1
527	2	2
759	9	9
601	9	9
324	21	7
540	20	5
275	27	9
525	3	1
456	14	7
799	27	9
748	6	3
650	18	6
500	9	9
235	10	5
704	16	8
457	6	2
760	21	7
779	9	3
221	10	5
772	4	2
725	12	6
594	3	1
255	4	2
592	6	6
548	2	1
465	12	6
